variable        NSTEPS          	equal 100000000
variable        THERMO_FREQ     	equal 20
variable        DUMP_FREQ       	equal 20
variable        TEMP            	equal 300
variable        SEED1           	equal 41439
variable        SEED2           	equal 21734
variable        dt              	equal 0.05e-3
variable        tdamp           	equal 100*${dt}

units           metal
boundary        p p p

atom_style      atomic
neigh_modify    delay 10 every 1

#read_restart	restart.24000000
read_data       conf.lmp

mass 1          107.86820 # Ag
mass 2          32.065000 # S
mass 3          14.006700 # N
mass 4          12.010700 # C
mass 5          1.0079400 # H
mass 6          15.999400 # O

pair_style      deepmd model.pb
pair_coeff      * * Ag S N C H O

timestep        0.5e-03
thermo          ${THERMO_FREQ}
thermo_style    custom step temp pe ke etotal press vol lx ly lz xy xz yz
thermo_modify   flush yes
restart         1000000 restart
restart         100 restart1 restart2

# equil - NVT
velocity        all create ${TEMP} ${SEED2} dist gaussian
run_style       verlet
fix             1 all nvt temp ${TEMP} ${TEMP} ${tdamp} 
dump            dpgen_dump all custom 100 all.lammpstrj id type x y z
fix            dpgen_plm all plumed plumedfile plumed.dat outfile output.plumed
run             ${NSTEPS}
